p cnf 169 422
a 2 4 23 25 28 31 38 40 43 46 10 12 15 142 58 163 1 9 52 22 37 57 64 0
d 87 28 31 0
d 120 10 1 0
d 112 43 46 0
d 53 22 37 0
d 136 9 52 0
d 150 57 64 0
d 3 2 0
d 5 4 0
d 6 2 4 0
d 7 1 2 4 0
d 8 1 2 4 0
d 11 10 0
d 13 12 0
d 14 10 12 0
d 16 15 2 0
d 17 15 2 4 0
d 18 10 12 15 2 4 0
d 19 9 10 12 15 2 4 0
d 20 9 10 12 15 2 4 0
d 21 1 2 4 9 10 12 15 0
d 24 23 0
d 26 25 0
d 27 23 25 0
d 29 28 0
d 30 23 25 28 0
d 32 31 0
d 33 23 25 28 31 0
d 34 22 23 25 28 31 0
d 35 22 23 25 28 31 0
d 36 1 2 4 9 10 12 15 22 23 25 28 31 0
d 39 38 0
d 41 40 0
d 42 38 40 0
d 44 43 0
d 45 38 40 43 0
d 47 46 0
d 48 38 40 43 46 0
d 49 37 38 40 43 46 0
d 50 37 38 40 43 46 0
d 51 1 2 4 9 10 12 15 22 23 25 28 31 37 38 40 43 46 0
d 54 52 22 37 0
d 55 52 22 37 0
d 56 1 2 4 9 10 12 15 22 23 25 28 31 37 38 40 43 46 52 0
d 59 58 2 0
d 60 58 2 4 0
d 61 57 58 2 4 0
d 62 57 58 2 4 0
d 63 1 2 4 9 10 12 15 22 23 25 28 31 37 38 40 43 46 52 57 58 0
d 65 64 23 25 28 31 0
d 66 64 23 25 28 31 0
d 67 1 2 4 9 10 12 15 22 23 25 28 31 37 38 40 43 46 52 57 58 64 0
d 68 2 0
d 69 2 4 0
d 70 2 4 0
d 71 2 4 0
d 72 23 2 0
d 73 23 2 4 0
d 74 23 2 4 0
d 75 2 4 23 0
d 76 23 25 0
d 77 2 4 23 25 0
d 78 2 4 23 0
d 79 2 4 23 25 0
d 80 2 4 23 25 0
d 81 2 4 23 25 0
d 82 28 2 0
d 83 28 2 4 0
d 84 23 25 28 2 4 0
d 85 23 25 28 2 4 0
d 86 2 4 23 25 28 0
d 88 2 4 23 25 0
d 89 28 31 2 4 23 25 0
d 90 28 31 0
d 91 28 31 2 4 23 25 0
d 92 28 31 2 4 23 25 0
d 93 2 4 23 25 28 31 0
d 94 38 2 0
d 95 38 2 4 0
d 96 38 2 4 23 25 28 31 0
d 97 38 2 4 23 25 28 31 0
d 98 2 4 23 25 28 31 38 0
d 99 28 31 0
d 100 28 31 38 0
d 101 28 31 38 40 0
d 102 2 4 23 25 28 31 38 40 0
d 103 2 4 23 25 28 31 38 40 0
d 104 2 4 23 25 28 31 38 40 0
d 105 43 2 0
d 106 43 2 4 0
d 107 38 40 43 2 4 0
d 108 23 25 28 31 38 40 43 2 4 0
d 109 23 25 28 31 38 40 43 2 4 0
d 110 2 4 23 25 28 31 38 40 43 0
d 111 28 31 38 40 0
d 113 43 46 2 4 23 25 0
d 114 28 31 38 40 43 46 2 4 23 25 0
d 115 43 46 0
d 116 43 46 2 4 23 25 0
d 117 28 31 38 40 43 46 2 4 23 25 0
d 118 28 31 38 40 43 46 2 4 23 25 0
d 119 2 4 23 25 28 31 38 40 43 46 0
d 121 10 1 23 25 28 31 0
d 122 38 40 43 46 10 1 23 25 28 31 0
d 123 10 2 0
d 124 10 2 4 0
d 125 10 2 4 23 25 28 31 0
d 126 38 40 43 46 10 2 4 23 25 28 31 0
d 127 38 40 43 46 10 1 23 25 28 31 2 4 0
d 128 2 4 23 25 28 31 38 40 43 46 10 1 0
d 129 43 46 0
d 130 43 46 10 0
d 131 43 46 10 12 0
d 132 2 4 23 25 28 31 38 40 0
d 133 43 46 10 12 2 4 23 25 28 31 38 40 0
d 134 43 46 10 12 2 4 23 25 28 31 38 40 0
d 135 2 4 23 25 28 31 38 40 43 46 10 1 12 0
d 137 23 25 28 31 38 40 43 46 0
d 138 10 12 15 2 4 23 25 28 31 38 40 43 46 0
d 139 9 52 10 12 15 2 4 23 25 28 31 38 40 43 46 0
d 140 2 4 23 25 28 31 38 40 43 46 10 1 12 9 52 15 0
d 141 15 0
d 143 15 142 0
d 144 15 142 2 4 23 25 0
d 145 43 46 10 12 0
d 146 28 31 38 40 43 46 10 12 0
d 147 15 142 2 4 23 25 28 31 38 40 43 46 10 12 0
d 148 15 142 2 4 23 25 28 31 38 40 43 46 10 12 0
d 149 2 4 23 25 28 31 38 40 43 46 10 1 12 9 52 15 142 0
d 151 10 12 15 0
d 152 142 0
d 153 10 12 15 142 0
d 154 38 40 43 46 10 12 15 142 0
d 155 57 64 38 40 43 46 10 12 15 142 0
d 156 58 2 4 23 25 28 31 0
d 157 58 2 4 23 25 28 31 38 40 43 46 10 12 15 142 0
d 158 57 64 38 40 43 46 10 12 15 142 58 2 4 23 25 28 31 0
d 159 2 4 23 25 28 31 38 40 43 46 10 1 12 9 52 15 142 57 64 58 0
d 160 15 142 0
d 161 58 0
d 162 15 142 58 0
d 164 15 142 58 163 0
d 165 43 46 10 12 15 142 58 163 0
d 166 2 4 23 25 28 31 38 40 43 46 10 12 15 142 58 163 0
d 167 2 4 23 25 28 31 38 40 43 46 10 12 15 142 58 163 0
d 168 2 4 23 25 28 31 38 40 43 46 10 1 12 9 52 15 142 57 64 58 163 0
d 169 1 2 4 9 10 12 15 22 23 25 28 31 37 38 40 43 46 52 57 58 64 142 163 0
3 2 0
-3 -2 0
5 4 0
-5 -4 0
-6 3 0
-6 5 0
6 -3 -5 0
7 -1 -6 0
7 1 6 0
-7 -1 6 0
-7 1 -6 0
8 7 0
-8 -7 0
11 10 0
-11 -10 0
13 12 0
-13 -12 0
-14 11 0
-14 13 0
14 -11 -13 0
-16 15 0
-16 3 0
16 -15 -3 0
-17 16 0
-17 5 0
17 -16 -5 0
-18 14 0
-18 17 0
18 -14 -17 0
19 -9 -18 0
19 9 18 0
-19 -9 18 0
-19 9 -18 0
20 19 0
-20 -19 0
21 -8 0
21 -20 0
-21 8 20 0
24 23 0
-24 -23 0
26 25 0
-26 -25 0
-27 24 0
-27 26 0
27 -24 -26 0
29 28 0
-29 -28 0
-30 27 0
-30 29 0
30 -27 -29 0
32 31 0
-32 -31 0
-33 30 0
-33 32 0
33 -30 -32 0
34 -22 -33 0
34 22 33 0
-34 -22 33 0
-34 22 -33 0
35 34 0
-35 -34 0
36 -21 0
36 -35 0
-36 21 35 0
39 38 0
-39 -38 0
41 40 0
-41 -40 0
-42 39 0
-42 41 0
42 -39 -41 0
44 43 0
-44 -43 0
-45 42 0
-45 44 0
45 -42 -44 0
47 46 0
-47 -46 0
-48 45 0
-48 47 0
48 -45 -47 0
49 -37 -48 0
49 37 48 0
-49 -37 48 0
-49 37 -48 0
50 49 0
-50 -49 0
51 -36 0
51 -50 0
-51 36 50 0
54 -52 -53 0
54 52 53 0
-54 -52 53 0
-54 52 -53 0
55 54 0
-55 -54 0
56 -51 0
56 -55 0
-56 51 55 0
-59 58 0
-59 3 0
59 -58 -3 0
-60 59 0
-60 5 0
60 -59 -5 0
61 -57 -60 0
61 57 60 0
-61 -57 60 0
-61 57 -60 0
62 61 0
-62 -61 0
63 -56 0
63 -62 0
-63 56 62 0
65 -64 -33 0
65 64 33 0
-65 -64 33 0
-65 64 -33 0
66 65 0
-66 -65 0
67 -63 0
67 -66 0
-67 63 66 0
68 -2 -2 0
68 2 2 0
-68 -2 2 0
-68 2 -2 0
-69 3 0
-69 4 0
69 -3 -4 0
70 -69 -69 0
70 69 69 0
-70 -69 69 0
-70 69 -69 0
-71 68 0
-71 70 0
71 -68 -70 0
-72 23 0
-72 3 0
72 -23 -3 0
-73 72 0
-73 5 0
73 -72 -5 0
74 -73 -73 0
74 73 73 0
-74 -73 73 0
-74 73 -73 0
-75 71 0
-75 74 0
75 -71 -74 0
-76 24 0
-76 25 0
76 -24 -25 0
77 -6 0
77 -76 0
-77 6 76 0
-78 6 0
-78 24 0
78 -6 -24 0
-79 78 0
-79 25 0
79 -78 -25 0
80 -77 -79 0
80 77 79 0
-80 -77 79 0
-80 77 -79 0
-81 75 0
-81 80 0
81 -75 -80 0
-82 28 0
-82 3 0
82 -28 -3 0
-83 82 0
-83 5 0
83 -82 -5 0
-84 27 0
-84 83 0
84 -27 -83 0
85 -84 -84 0
85 84 84 0
-85 -84 84 0
-85 84 -84 0
-86 81 0
-86 85 0
86 -81 -85 0
-88 78 0
-88 26 0
88 -78 -26 0
-89 87 0
-89 88 0
89 -87 -88 0
-90 29 0
-90 31 0
90 -29 -31 0
-91 90 0
-91 88 0
91 -90 -88 0
92 -89 -91 0
92 89 91 0
-92 -89 91 0
-92 89 -91 0
-93 86 0
-93 92 0
93 -86 -92 0
-94 38 0
-94 3 0
94 -38 -3 0
-95 94 0
-95 5 0
95 -94 -5 0
-96 95 0
-96 33 0
96 -95 -33 0
97 -96 -96 0
97 96 96 0
-97 -96 96 0
-97 96 -96 0
-98 93 0
-98 97 0
98 -93 -97 0
-99 29 0
-99 32 0
99 -29 -32 0
-100 99 0
-100 39 0
100 -99 -39 0
-101 100 0
-101 40 0
101 -100 -40 0
-102 88 0
-102 101 0
102 -88 -101 0
103 -102 -102 0
103 102 102 0
-103 -102 102 0
-103 102 -102 0
-104 98 0
-104 103 0
104 -98 -103 0
-105 43 0
-105 3 0
105 -43 -3 0
-106 105 0
-106 5 0
106 -105 -5 0
-107 42 0
-107 106 0
107 -42 -106 0
-108 33 0
-108 107 0
108 -33 -107 0
109 -108 -108 0
109 108 108 0
-109 -108 108 0
-109 108 -108 0
-110 104 0
-110 109 0
110 -104 -109 0
-111 100 0
-111 41 0
111 -100 -41 0
-113 112 0
-113 88 0
113 -112 -88 0
-114 111 0
-114 113 0
114 -111 -113 0
-115 44 0
-115 46 0
115 -44 -46 0
-116 115 0
-116 88 0
116 -115 -88 0
-117 111 0
-117 116 0
117 -111 -116 0
118 -114 -117 0
118 114 117 0
-118 -114 117 0
-118 114 -117 0
-119 110 0
-119 118 0
119 -110 -118 0
-121 120 0
-121 33 0
121 -120 -33 0
-122 48 0
-122 121 0
122 -48 -121 0
-123 10 0
-123 3 0
123 -10 -3 0
-124 123 0
-124 5 0
124 -123 -5 0
-125 124 0
-125 33 0
125 -124 -33 0
-126 48 0
-126 125 0
126 -48 -125 0
127 -122 -126 0
127 122 126 0
-127 -122 126 0
-127 122 -126 0
-128 119 0
-128 127 0
128 -119 -127 0
-129 44 0
-129 47 0
129 -44 -47 0
-130 129 0
-130 11 0
130 -129 -11 0
-131 130 0
-131 12 0
131 -130 -12 0
-132 88 0
-132 111 0
132 -88 -111 0
-133 131 0
-133 132 0
133 -131 -132 0
134 -133 -133 0
134 133 133 0
-134 -133 133 0
-134 133 -133 0
-135 128 0
-135 134 0
135 -128 -134 0
-137 33 0
-137 48 0
137 -33 -48 0
-138 18 0
-138 137 0
138 -18 -137 0
139 -136 -138 0
139 136 138 0
-139 -136 138 0
-139 136 -138 0
-140 135 0
-140 139 0
140 -135 -139 0
141 15 0
-141 -15 0
-143 141 0
-143 142 0
143 -141 -142 0
-144 143 0
-144 88 0
144 -143 -88 0
-145 130 0
-145 13 0
145 -130 -13 0
-146 111 0
-146 145 0
146 -111 -145 0
-147 144 0
-147 146 0
147 -144 -146 0
148 -147 -147 0
148 147 147 0
-148 -147 147 0
-148 147 -147 0
-149 140 0
-149 148 0
149 -140 -148 0
-151 14 0
-151 141 0
151 -14 -141 0
152 142 0
-152 -142 0
-153 151 0
-153 152 0
153 -151 -152 0
-154 48 0
-154 153 0
154 -48 -153 0
-155 150 0
-155 154 0
155 -150 -154 0
-156 60 0
-156 33 0
156 -60 -33 0
-157 156 0
-157 154 0
157 -156 -154 0
158 -155 -157 0
158 155 157 0
-158 -155 157 0
-158 155 -157 0
-159 149 0
-159 158 0
159 -149 -158 0
-160 141 0
-160 152 0
160 -141 -152 0
161 58 0
-161 -58 0
-162 160 0
-162 161 0
162 -160 -161 0
-164 162 0
-164 163 0
164 -162 -163 0
-165 145 0
-165 164 0
165 -145 -164 0
-166 132 0
-166 165 0
166 -132 -165 0
167 -166 -166 0
167 166 166 0
-167 -166 166 0
-167 166 -166 0
-168 159 0
-168 167 0
168 -159 -167 0
169 -67 0
169 -168 0
-169 67 168 0
169 0
